* Signature: 0xbfe7bb6e262378c1
NAME markshare_4_0_copy
ROWS
 N  OBJ
 E  C1_     
 E  C2_     
 E  C3_     
 E  C4_     
COLUMNS
    s1        OBJ       1
    s1        C1_       1
    s2        OBJ       1
    s2        C2_       1
    s3        OBJ       1
    s3        C3_       1
    s4        OBJ       1
    s4        C4_       1
    x1        C4_       2
    x1        C3_       46
    x1        C2_       93
    x1        C1_       17
    x2        C4_       77
    x2        C3_       63
    x2        C2_       44
    x2        C1_       75
    x3        C4_       73
    x3        C3_       13
    x3        C2_       79
    x3        C1_       9
    x4        C4_       59
    x4        C3_       97
    x4        C2_       12
    x4        C1_       87
    x5        C4_       43
    x5        C3_       14
    x5        C2_       8
    x5        C1_       58
    x6        C4_       64
    x6        C3_       45
    x6        C2_       95
    x6        C1_       79
    x7        C4_       75
    x7        C3_       32
    x7        C2_       2
    x7        C1_       69
    x8        C4_       6
    x8        C3_       96
    x8        C2_       15
    x8        C1_       37
    x9        C4_       5
    x9        C3_       36
    x9        C2_       38
    x9        C1_       88
    x10       C4_       78
    x10       C3_       40
    x10       C2_       15
    x10       C1_       75
    x11       C4_       71
    x11       C3_       10
    x11       C2_       53
    x11       C1_       45
    x12       C4_       12
    x12       C3_       96
    x12       C2_       88
    x12       C1_       35
    x13       C4_       30
    x13       C3_       99
    x13       C2_       43
    x13       C1_       73
    x14       C4_       7
    x14       C3_       58
    x14       C2_       26
    x14       C1_       26
    x15       C4_       69
    x15       C3_       87
    x15       C2_       31
    x15       C1_       39
    x16       C4_       36
    x16       C3_       15
    x16       C2_       77
    x16       C1_       78
    x17       C4_       73
    x17       C3_       91
    x17       C2_       10
    x17       C1_       85
    x18       C4_       19
    x18       C3_       65
    x18       C2_       77
    x18       C1_       58
    x19       C4_       15
    x19       C3_       6
    x19       C2_       71
    x19       C1_       72
    x20       C4_       16
    x20       C3_       96
    x20       C2_       22
    x20       C1_       8
    x21       C4_       84
    x21       C3_       97
    x21       C2_       76
    x21       C1_       46
    x22       C4_       55
    x22       C3_       79
    x22       C2_       41
    x22       C1_       11
    x23       C4_       32
    x23       C3_       81
    x23       C2_       65
    x23       C1_       55
    x24       C4_       53
    x24       C3_       57
    x24       C2_       93
    x24       C1_       39
    x25       C4_       43
    x25       C3_       28
    x25       C2_       50
    x25       C1_       57
    x26       C4_       21
    x26       C3_       97
    x26       C2_       69
    x26       C1_       96
    x27       C4_       73
    x27       C3_       58
    x27       C2_       44
    x27       C1_       87
    x28       C3_       44
    x28       C2_       61
    x28       C1_       16
    x29       C4_       59
    x29       C3_       37
    x29       C2_       58
    x29       C1_       27
    x30       C4_       48
    x30       C3_       93
    x30       C2_       63
    x30       C1_       26
RHS
    RHS1      C1_       786
    RHS1      C2_       759
    RHS1      C3_       888
    RHS1      C4_       649
BOUNDS
 UP BND1      x1        1
 UP BND1      x2        1
 UP BND1      x3        1
 UP BND1      x4        1
 UP BND1      x5        1
 UP BND1      x6        1
 UP BND1      x7        1
 UP BND1      x8        1
 UP BND1      x9        1
 UP BND1      x10       1
 UP BND1      x11       1
 UP BND1      x12       1
 UP BND1      x13       1
 UP BND1      x14       1
 UP BND1      x15       1
 UP BND1      x16       1
 UP BND1      x17       1
 UP BND1      x18       1
 UP BND1      x19       1
 UP BND1      x20       1
 UP BND1      x21       1
 UP BND1      x22       1
 UP BND1      x23       1
 UP BND1      x24       1
 UP BND1      x25       1
 UP BND1      x26       1
 UP BND1      x27       1
 UP BND1      x28       1
 UP BND1      x29       1
 UP BND1      x30       1
ENDATA
